# Random Circle Problem
param d := 0.05; 
param n := 10; 
param radius := 2.00; 
param v0 := 
1 5.78
2 5.60
3 5.73
4 5.90
5 5.92
6 5.24
7 5.32
8 5.57
9 5.39
10 5.43
;
param cap := 
1 3.58885
2 3.77500
3 4.58786
4 5.34255
5 5.99780
6 0.37430
7 0.92180
8 1.76537
9 2.31895
10 2.58253
;
param x0 := 
1 2.00
2 1.62
3 0.62
4 -0.62
5 -1.62
6 -2.00
7 -1.62
8 -0.62
9 0.62
10 1.62
;
param y0 := 
1 -0.00
2 1.18
3 1.90
4 1.90
5 1.18
6 0.00
7 -1.18
8 -1.90
9 -1.90
10 -1.18
;
